! 2-port S-parameter, 1-6 GHz, dB format with noise
# MHz S dB R 50
! freq dBS11 angS11 dBS21 angS21 dBS12 angS12 dBS22 angS22
1000 -20.0  45.0 -0.5   -2.0 -0.5   -2.0 -22.0  60.0
2000 -15.0  30.0 -1.0   -5.0 -1.0   -5.0 -18.0  45.0
3000 -10.0  15.0 -3.0  -15.0 -3.0  -15.0 -14.0  30.0
4000  -7.0   5.0 -6.0  -30.0 -6.0  -30.0 -10.0  20.0
5000  -5.0  -5.0 -10.0 -50.0 -10.0 -50.0  -8.0  10.0
6000  -4.0 -15.0 -15.0 -70.0 -15.0 -70.0  -7.0   5.0
[Noise]
1000 1.5  0.5
2000 2.0  0.4
3000 2.5  0.3
4000 3.0  0.25
5000 3.5  0.2
6000 4.0  0.18
