! 2-port S-parameters, 1-10 GHz, RI format
# GHz S RI R 50
! freq ReS11 ImS11 ReS21 ImS21 ReS12 ImS12 ReS22 ImS22
1.0  0.05  -0.20  0.99   0.05  0.99   0.05  0.04  -0.18
2.0  0.10  -0.35  0.97   0.10  0.97   0.10  0.08  -0.30
3.0  0.15  -0.45  0.94   0.15  0.94   0.15  0.12  -0.40
4.0  0.20  -0.50  0.90   0.20  0.90   0.20  0.15  -0.45
5.0  0.22  -0.55  0.85   0.25  0.85   0.25  0.18  -0.50
6.0  0.25  -0.60  0.80   0.30  0.80   0.30  0.20  -0.55
7.0  0.28  -0.62  0.74   0.34  0.74   0.34  0.22  -0.58
8.0  0.30  -0.64  0.68   0.38  0.68   0.38  0.24  -0.60
9.0  0.32  -0.65  0.62   0.41  0.62   0.41  0.26  -0.62
10.0 0.33  -0.66  0.56   0.44  0.56   0.44  0.27  -0.63
